decision_x1=[0,7];
decision_x2=[0,7];
decision_x3=[0,7];
decision_x4=[0,7];
decision_x5=[0,7];
decision_x6=[0,7];
decision_x7=[0,7];
decision_x8=[0,7];
decision_x9=[0,7];
decision_x10=[0,7];
decision_x11=[0,7];
decision_x12=[0,7];
decision_x13=[0,7];
decision_x14=[0,7];
decision_x15=[0,7];
decision_x16=[0,7];
decision_x17=[0,7];
decision_x18=[0,7];
decision_x19=[0,7];
decision_x20=[0,7];
random_y1=[0,7];
random_y2=[0,7];
random_y3=[0,7];
random_y4=[0,7];
random_y5=[0,7];
random_y6=[0,7];
random_y7=[0,7];
random_y8=[0,7];
random_y9=[0,7];
constraint_x2_x1=[
0,0,2.2|
0,1,2.8|
0,2,0.8|
0,3,6.3|
0,4,1.2|
0,5,4.6|
0,6,2.2|
0,7,6.5|
1,0,2.4|
1,1,1|
1,2,3.6|
1,3,9.8|
1,4,6.5|
1,5,7.1|
1,6,4.8|
1,7,4.5|
2,0,2.6|
2,1,3.1|
2,2,3.8|
2,3,0.62|
2,4,8.3|
2,5,3.2|
2,6,5.5|
2,7,2.4|
3,0,7.2|
3,1,4.6|
3,2,6|
3,3,1.9|
3,4,5.4|
3,5,6.6|
3,6,3.3|
3,7,9.2|
4,0,3.3|
4,1,9.8|
4,2,4.5|
4,3,9.5|
4,4,5|
4,5,9.8|
4,6,4.4|
4,7,7.9|
5,0,6.6|
5,1,0.84|
5,2,1.3|
5,3,5.6|
5,4,10|
5,5,2.1|
5,6,0.38|
5,7,2.7|
6,0,0.46|
6,1,4.7|
6,2,7.1|
6,3,5|
6,4,5|
6,5,6.1|
6,6,3.5|
6,7,9|
7,0,0.16|
7,1,3.4|
7,2,7.6|
7,3,6.8|
7,4,9.4|
7,5,0.094|
7,6,5.8|
7,7,6.1|
];
constraint_x3_x2=[
0,0,4.9|
0,1,0.96|
0,2,5.3|
0,3,1.9|
0,4,1.3|
0,5,4|
0,6,5.6|
0,7,4.4|
1,0,0.14|
1,1,9.1|
1,2,5.2|
1,3,8.9|
1,4,1.7|
1,5,0.07|
1,6,3.7|
1,7,1.7|
2,0,0.55|
2,1,5|
2,2,4.1|
2,3,6.7|
2,4,8.4|
2,5,6.2|
2,6,7.7|
2,7,0.31|
3,0,4.2|
3,1,6.3|
3,2,8.9|
3,3,7|
3,4,4.9|
3,5,4.6|
3,6,4.5|
3,7,8.4|
4,0,9.3|
4,1,9.9|
4,2,9.7|
4,3,3.6|
4,4,9.9|
4,5,1.8|
4,6,7.6|
4,7,3.3|
5,0,7.8|
5,1,5.2|
5,2,0.95|
5,3,7.7|
5,4,2.5|
5,5,8.9|
5,6,0.063|
5,7,8.2|
6,0,6.8|
6,1,6.4|
6,2,7.8|
6,3,9.2|
6,4,4.9|
6,5,8.7|
6,6,6.6|
6,7,1.8|
7,0,0.46|
7,1,3.3|
7,2,4.1|
7,3,1.1|
7,4,5.3|
7,5,7.1|
7,6,4.4|
7,7,1.7|
];
constraint_x4_x3=[
0,0,7.3|
0,1,6.6|
0,2,3.5|
0,3,6.1|
0,4,1.8|
0,5,2.2|
0,6,1.5|
0,7,7.6|
1,0,6.2|
1,1,3.5|
1,2,9.6|
1,3,1.6|
1,4,7.3|
1,5,3.8|
1,6,0.1|
1,7,2.5|
2,0,8.2|
2,1,2.6|
2,2,4.8|
2,3,0.83|
2,4,2|
2,5,9.8|
2,6,5.1|
2,7,8.5|
3,0,4.7|
3,1,1.6|
3,2,2.4|
3,3,9.1|
3,4,2.1|
3,5,2.6|
3,6,8.9|
3,7,8|
4,0,3|
4,1,4.1|
4,2,2.1|
4,3,7.1|
4,4,7.3|
4,5,3.9|
4,6,9.6|
4,7,5.3|
5,0,3.5|
5,1,9.5|
5,2,2.1|
5,3,6.4|
5,4,5.4|
5,5,9.2|
5,6,3|
5,7,3.9|
6,0,5.6|
6,1,5.2|
6,2,3.7|
6,3,0.84|
6,4,5.1|
6,5,5.1|
6,6,7.8|
6,7,0.038|
7,0,2.9|
7,1,0.45|
7,2,9.9|
7,3,0.45|
7,4,0.48|
7,5,1.5|
7,6,5.7|
7,7,9.8|
];
constraint_x5_x1=[
0,0,2.1|
0,1,2.2|
0,2,8|
0,3,7.8|
0,4,2.3|
0,5,7.2|
0,6,2.1|
0,7,0.36|
1,0,7|
1,1,3.5|
1,2,6.4|
1,3,7.6|
1,4,3.7|
1,5,4|
1,6,0.67|
1,7,7.8|
2,0,9.1|
2,1,7.3|
2,2,3|
2,3,4.5|
2,4,3.2|
2,5,5.1|
2,6,7.3|
2,7,0.28|
3,0,8.3|
3,1,4.2|
3,2,2.5|
3,3,6.6|
3,4,8.3|
3,5,3|
3,6,7.9|
3,7,4.8|
4,0,5.7|
4,1,7.4|
4,2,1.6|
4,3,9.8|
4,4,9.4|
4,5,3.5|
4,6,8.4|
4,7,9.4|
5,0,9.1|
5,1,2.7|
5,2,6.1|
5,3,7|
5,4,6.5|
5,5,9.1|
5,6,8.8|
5,7,3.6|
6,0,6.7|
6,1,4.7|
6,2,6.4|
6,3,4.6|
6,4,8.6|
6,5,6.3|
6,6,1.6|
6,7,1.5|
7,0,0.74|
7,1,1.2|
7,2,8.8|
7,3,7.1|
7,4,1.2|
7,5,8.1|
7,6,8.6|
7,7,5.9|
];
constraint_x6_x2=[
0,0,2.3|
0,1,6.5|
0,2,8.5|
0,3,3|
0,4,5.8|
0,5,0.9|
0,6,7.1|
0,7,3|
1,0,5.4|
1,1,4.2|
1,2,7.9|
1,3,6.3|
1,4,5.4|
1,5,8|
1,6,2.3|
1,7,9.8|
2,0,4.8|
2,1,1.7|
2,2,0.85|
2,3,0.35|
2,4,3.9|
2,5,0.5|
2,6,1.2|
2,7,1.1|
3,0,7|
3,1,8.5|
3,2,3.6|
3,3,1.1|
3,4,0.47|
3,5,7.1|
3,6,9.2|
3,7,7.4|
4,0,5.7|
4,1,5.7|
4,2,6.4|
4,3,1.2|
4,4,9.3|
4,5,6.7|
4,6,4.4|
4,7,0.5|
5,0,4.1|
5,1,4.4|
5,2,7.4|
5,3,9.9|
5,4,0.49|
5,5,10|
5,6,6.9|
5,7,1.8|
6,0,5.7|
6,1,9|
6,2,9.6|
6,3,0.62|
6,4,4.5|
6,5,0.16|
6,6,2.2|
6,7,3.7|
7,0,9.6|
7,1,6.3|
7,2,8.9|
7,3,8.5|
7,4,1.7|
7,5,9.5|
7,6,0.72|
7,7,9.3|
];
constraint_x6_x5=[
0,0,1.2|
0,1,0.37|
0,2,8.3|
0,3,3.6|
0,4,5.5|
0,5,0.25|
0,6,1.3|
0,7,0.94|
1,0,0.056|
1,1,1|
1,2,2.6|
1,3,0.55|
1,4,6.6|
1,5,0.09|
1,6,8.1|
1,7,3.6|
2,0,6.6|
2,1,1.9|
2,2,1.8|
2,3,7|
2,4,2.6|
2,5,7.2|
2,6,3.8|
2,7,1.2|
3,0,1.9|
3,1,8.3|
3,2,9|
3,3,3|
3,4,2.3|
3,5,0.89|
3,6,0.04|
3,7,8.1|
4,0,4.4|
4,1,3.8|
4,2,9.2|
4,3,1.8|
4,4,0.37|
4,5,2.7|
4,6,5.4|
4,7,4.7|
5,0,4.3|
5,1,8.3|
5,2,2.9|
5,3,3|
5,4,0.68|
5,5,8.6|
5,6,7.6|
5,7,6.9|
6,0,8.2|
6,1,7.1|
6,2,6.7|
6,3,10|
6,4,7.5|
6,5,9|
6,6,7.1|
6,7,3.1|
7,0,8.4|
7,1,4.5|
7,2,9.5|
7,3,3|
7,4,2.2|
7,5,3.9|
7,6,7.1|
7,7,1.8|
];
constraint_x7_x3=[
0,0,8.2|
0,1,3.7|
0,2,2.5|
0,3,3|
0,4,2|
0,5,8.7|
0,6,4.8|
0,7,0.99|
1,0,8.5|
1,1,6|
1,2,5.5|
1,3,7.9|
1,4,8.4|
1,5,2.1|
1,6,6.3|
1,7,7.1|
2,0,1.2|
2,1,3.6|
2,2,10|
2,3,0.44|
2,4,4.7|
2,5,6.6|
2,6,7.5|
2,7,3.3|
3,0,0.83|
3,1,8.7|
3,2,5|
3,3,5.5|
3,4,2.9|
3,5,5.7|
3,6,5.1|
3,7,0.9|
4,0,3.8|
4,1,4.2|
4,2,0.27|
4,3,6.3|
4,4,4.4|
4,5,7.9|
4,6,5|
4,7,1.6|
5,0,7.3|
5,1,5.6|
5,2,0.72|
5,3,7.6|
5,4,8.3|
5,5,5.5|
5,6,9|
5,7,0.89|
6,0,7.9|
6,1,7.2|
6,2,1.2|
6,3,2.4|
6,4,7.7|
6,5,1.8|
6,6,3.1|
6,7,7.1|
7,0,7.3|
7,1,1.2|
7,2,4.2|
7,3,4|
7,4,6.2|
7,5,3.1|
7,6,0.34|
7,7,4.9|
];
constraint_x7_x6=[
0,0,0.56|
0,1,0.34|
0,2,5.2|
0,3,6.1|
0,4,8|
0,5,4.6|
0,6,7.3|
0,7,4.8|
1,0,1.5|
1,1,6.6|
1,2,0.24|
1,3,1.3|
1,4,9.6|
1,5,7|
1,6,3.8|
1,7,6.3|
2,0,8.3|
2,1,6.8|
2,2,1.2|
2,3,0.76|
2,4,6.9|
2,5,3.6|
2,6,1.9|
2,7,1.6|
3,0,6.4|
3,1,7.7|
3,2,0.87|
3,3,6.9|
3,4,3.6|
3,5,9.2|
3,6,6.5|
3,7,2.9|
4,0,2.5|
4,1,7.3|
4,2,6.7|
4,3,7.1|
4,4,9.6|
4,5,1.8|
4,6,6.5|
4,7,5.8|
5,0,9.6|
5,1,7.4|
5,2,5.7|
5,3,3.5|
5,4,4.2|
5,5,7.4|
5,6,3.1|
5,7,4.5|
6,0,6.9|
6,1,0.76|
6,2,7.5|
6,3,7.2|
6,4,4.5|
6,5,1.3|
6,6,3.7|
6,7,3.3|
7,0,5.3|
7,1,1.3|
7,2,4.5|
7,3,7.1|
7,4,4|
7,5,9.1|
7,6,1.5|
7,7,5.1|
];
constraint_x8_x4=[
0,0,0.095|
0,1,3.4|
0,2,6|
0,3,2.5|
0,4,9.6|
0,5,4|
0,6,7.6|
0,7,3.3|
1,0,7.2|
1,1,3.4|
1,2,4.7|
1,3,0.012|
1,4,1.6|
1,5,7.7|
1,6,0.062|
1,7,7.7|
2,0,2.4|
2,1,0.9|
2,2,2.5|
2,3,6.3|
2,4,6|
2,5,8.5|
2,6,6.2|
2,7,1.6|
3,0,7.5|
3,1,4.5|
3,2,0.75|
3,3,5.8|
3,4,7.4|
3,5,7.9|
3,6,8.8|
3,7,7.8|
4,0,3.8|
4,1,7.8|
4,2,8.9|
4,3,3.5|
4,4,0.82|
4,5,5.8|
4,6,6.1|
4,7,5.8|
5,0,3|
5,1,6.9|
5,2,3.4|
5,3,9.5|
5,4,6.1|
5,5,0.64|
5,6,5.9|
5,7,0.68|
6,0,5.8|
6,1,0.21|
6,2,3.5|
6,3,8.3|
6,4,9.5|
6,5,5.7|
6,6,9.5|
6,7,4.5|
7,0,4.7|
7,1,3.8|
7,2,4.6|
7,3,9.8|
7,4,8.4|
7,5,0.73|
7,6,2|
7,7,1.2|
];
constraint_x8_x7=[
0,0,5.6|
0,1,2.4|
0,2,3.1|
0,3,3.2|
0,4,1.9|
0,5,6.3|
0,6,3.2|
0,7,9.8|
1,0,4|
1,1,9.6|
1,2,7.5|
1,3,5.5|
1,4,2.7|
1,5,6.2|
1,6,4.8|
1,7,9.2|
2,0,4.2|
2,1,8.1|
2,2,0.71|
2,3,1.8|
2,4,8.7|
2,5,7.7|
2,6,4.3|
2,7,9.6|
3,0,2|
3,1,5.3|
3,2,8.6|
3,3,3.9|
3,4,4.4|
3,5,7.8|
3,6,4.9|
3,7,9.4|
4,0,1|
4,1,8.9|
4,2,9.8|
4,3,3|
4,4,7.3|
4,5,9.9|
4,6,3|
4,7,1.4|
5,0,6.5|
5,1,6.1|
5,2,1.8|
5,3,2.9|
5,4,7.9|
5,5,7.9|
5,6,3.5|
5,7,7|
6,0,3.2|
6,1,1.6|
6,2,8.3|
6,3,9.9|
6,4,7.4|
6,5,0.07|
6,6,7|
6,7,6.7|
7,0,2.7|
7,1,8.6|
7,2,0.3|
7,3,3.6|
7,4,0.98|
7,5,7.7|
7,6,7.8|
7,7,8.2|
];
constraint_x9_x5=[
0,0,8.1|
0,1,1.2|
0,2,6.7|
0,3,7.1|
0,4,1.5|
0,5,4.8|
0,6,2.2|
0,7,3.8|
1,0,9.7|
1,1,4|
1,2,4.5|
1,3,6.4|
1,4,2.2|
1,5,1.2|
1,6,4.7|
1,7,5.1|
2,0,8.4|
2,1,2.4|
2,2,5.1|
2,3,7.7|
2,4,2|
2,5,0.31|
2,6,2.7|
2,7,7.5|
3,0,1.9|
3,1,3.8|
3,2,5|
3,3,3.5|
3,4,3.6|
3,5,8.5|
3,6,9.3|
3,7,8.8|
4,0,2.3|
4,1,2.1|
4,2,1.6|
4,3,4.3|
4,4,3.3|
4,5,5.4|
4,6,5.5|
4,7,6.8|
5,0,3.7|
5,1,0.18|
5,2,7.1|
5,3,0.15|
5,4,1.9|
5,5,0.26|
5,6,3.2|
5,7,1.8|
6,0,0.98|
6,1,7|
6,2,4.2|
6,3,3.8|
6,4,0.67|
6,5,5.7|
6,6,1.3|
6,7,7.6|
7,0,5.2|
7,1,3.6|
7,2,4.1|
7,3,10|
7,4,6.5|
7,5,9|
7,6,8.7|
7,7,9.6|
];
constraint_x10_x6=[
0,0,3.7|
0,1,6.4|
0,2,5.2|
0,3,5.3|
0,4,9.8|
0,5,3.2|
0,6,6.6|
0,7,3.4|
1,0,0.73|
1,1,2.9|
1,2,2.2|
1,3,8.1|
1,4,0.31|
1,5,9.2|
1,6,6|
1,7,5.2|
2,0,3.2|
2,1,3.3|
2,2,8.4|
2,3,8.7|
2,4,6|
2,5,1.5|
2,6,1.6|
2,7,6.8|
3,0,6.4|
3,1,8.4|
3,2,1.3|
3,3,4.2|
3,4,6|
3,5,8|
3,6,0.52|
3,7,7.7|
4,0,8|
4,1,8.1|
4,2,6.5|
4,3,3.5|
4,4,7.9|
4,5,7.5|
4,6,4.1|
4,7,1.4|
5,0,2.3|
5,1,1.4|
5,2,2.2|
5,3,2|
5,4,7.3|
5,5,5.5|
5,6,6.6|
5,7,6.8|
6,0,4.2|
6,1,7.1|
6,2,1.3|
6,3,7.9|
6,4,5.3|
6,5,5.8|
6,6,2|
6,7,6.7|
7,0,5.1|
7,1,6.6|
7,2,5.2|
7,3,4.9|
7,4,5.4|
7,5,3|
7,6,7.2|
7,7,4.1|
];
constraint_x10_x9=[
0,0,1.9|
0,1,4.2|
0,2,9.7|
0,3,5.6|
0,4,8.2|
0,5,7|
0,6,6.4|
0,7,5.2|
1,0,8.9|
1,1,7.2|
1,2,0.31|
1,3,8|
1,4,5.2|
1,5,9.9|
1,6,6.9|
1,7,8.1|
2,0,3.8|
2,1,2.5|
2,2,4.3|
2,3,9.2|
2,4,9.6|
2,5,4.1|
2,6,3.8|
2,7,1.9|
3,0,2.4|
3,1,2.4|
3,2,8.7|
3,3,3|
3,4,5.8|
3,5,6.8|
3,6,1.4|
3,7,8.5|
4,0,2.5|
4,1,6.9|
4,2,2.1|
4,3,7|
4,4,4.7|
4,5,7.3|
4,6,10|
4,7,9.7|
5,0,7.3|
5,1,3.6|
5,2,3.5|
5,3,9|
5,4,5.4|
5,5,7.2|
5,6,6.4|
5,7,2.7|
6,0,6.9|
6,1,9|
6,2,7.9|
6,3,8|
6,4,9.4|
6,5,3.3|
6,6,8.8|
6,7,3.9|
7,0,5.3|
7,1,2.1|
7,2,6.1|
7,3,9.1|
7,4,0.82|
7,5,0.94|
7,6,5.3|
7,7,9.1|
];
constraint_x11_x7=[
0,0,9.6|
0,1,7.9|
0,2,5.8|
0,3,1.2|
0,4,3.3|
0,5,8.5|
0,6,9.9|
0,7,4.6|
1,0,7.2|
1,1,6.4|
1,2,9.3|
1,3,6.9|
1,4,9.4|
1,5,7.3|
1,6,8.7|
1,7,8.2|
2,0,8.3|
2,1,4|
2,2,3.9|
2,3,7|
2,4,9.1|
2,5,7.5|
2,6,2.8|
2,7,3.3|
3,0,6.4|
3,1,5.5|
3,2,5.1|
3,3,7.3|
3,4,5.9|
3,5,8.9|
3,6,3.1|
3,7,9.7|
4,0,7.1|
4,1,7.1|
4,2,6.9|
4,3,0.34|
4,4,1|
4,5,2.5|
4,6,7.4|
4,7,4.2|
5,0,7.2|
5,1,4.9|
5,2,5.2|
5,3,8.1|
5,4,0.92|
5,5,7.9|
5,6,9.6|
5,7,6.7|
6,0,7.1|
6,1,1|
6,2,6|
6,3,9.9|
6,4,1.5|
6,5,7.8|
6,6,3|
6,7,8.7|
7,0,9.9|
7,1,5.1|
7,2,2.2|
7,3,0.13|
7,4,0.74|
7,5,3.9|
7,6,3|
7,7,9.1|
];
constraint_x11_x10=[
0,0,2.7|
0,1,1.4|
0,2,1.7|
0,3,9.6|
0,4,3.9|
0,5,2.7|
0,6,4.6|
0,7,4.5|
1,0,9.1|
1,1,9.8|
1,2,1.9|
1,3,6.9|
1,4,6.8|
1,5,1.3|
1,6,8|
1,7,6.7|
2,0,6.5|
2,1,4.5|
2,2,5.8|
2,3,8.6|
2,4,8.6|
2,5,9.5|
2,6,9.2|
2,7,4.8|
3,0,9.1|
3,1,1.5|
3,2,5|
3,3,4|
3,4,9.2|
3,5,0.24|
3,6,9.4|
3,7,5.8|
4,0,5.5|
4,1,3|
4,2,1.5|
4,3,6.9|
4,4,4.8|
4,5,5.9|
4,6,6.1|
4,7,8.1|
5,0,5.4|
5,1,4.9|
5,2,0.74|
5,3,1.6|
5,4,3.4|
5,5,9.4|
5,6,5.3|
5,7,3.5|
6,0,0.43|
6,1,6.7|
6,2,3.2|
6,3,8.1|
6,4,2.2|
6,5,9.3|
6,6,4|
6,7,0.37|
7,0,7.7|
7,1,8.7|
7,2,6.2|
7,3,5|
7,4,3.7|
7,5,0.57|
7,6,8|
7,7,9.8|
];
constraint_x12_x8=[
0,0,7.4|
0,1,4.4|
0,2,8.4|
0,3,9.2|
0,4,7.3|
0,5,0.48|
0,6,7.6|
0,7,5.9|
1,0,6.7|
1,1,1.4|
1,2,8.8|
1,3,8.6|
1,4,7.3|
1,5,5.2|
1,6,5.9|
1,7,4.8|
2,0,3|
2,1,4.1|
2,2,2.3|
2,3,3.8|
2,4,5.2|
2,5,4.6|
2,6,2.6|
2,7,2.3|
3,0,9.8|
3,1,2.8|
3,2,9.7|
3,3,4.8|
3,4,0.83|
3,5,5.7|
3,6,5.1|
3,7,3.6|
4,0,0.15|
4,1,7.3|
4,2,8.6|
4,3,9.3|
4,4,6|
4,5,5.3|
4,6,9|
4,7,7.4|
5,0,9|
5,1,4.5|
5,2,9.9|
5,3,1.5|
5,4,9.5|
5,5,7.6|
5,6,5|
5,7,5.3|
6,0,0.42|
6,1,8.9|
6,2,1.6|
6,3,9.2|
6,4,8.1|
6,5,0.64|
6,6,1.1|
6,7,5.4|
7,0,3.1|
7,1,9.3|
7,2,2.4|
7,3,7.7|
7,4,5.4|
7,5,0.089|
7,6,5.8|
7,7,1.7|
];
constraint_x12_x11=[
0,0,7.4|
0,1,1|
0,2,8.3|
0,3,1.2|
0,4,6.3|
0,5,0.95|
0,6,4|
0,7,7.2|
1,0,1.3|
1,1,7.5|
1,2,6.3|
1,3,4.1|
1,4,3.3|
1,5,5|
1,6,3.1|
1,7,7.4|
2,0,4.3|
2,1,9.1|
2,2,7.6|
2,3,6.5|
2,4,5.8|
2,5,8.4|
2,6,5.2|
2,7,8.2|
3,0,4.3|
3,1,0.75|
3,2,3.7|
3,3,6|
3,4,7.3|
3,5,8.1|
3,6,8.5|
3,7,3.7|
4,0,7.3|
4,1,2.8|
4,2,8.1|
4,3,8.2|
4,4,4|
4,5,5|
4,6,7.1|
4,7,5.4|
5,0,7.8|
5,1,8.2|
5,2,7.2|
5,3,0.86|
5,4,6.8|
5,5,9.8|
5,6,0.0063|
5,7,9.7|
6,0,4.1|
6,1,9.8|
6,2,9.2|
6,3,4.1|
6,4,7.7|
6,5,4|
6,6,4.9|
6,7,4.8|
7,0,6.4|
7,1,2.3|
7,2,1.4|
7,3,6|
7,4,8.7|
7,5,9.6|
7,6,9.2|
7,7,8.1|
];
constraint_x13_x9=[
0,0,2.3|
0,1,5.7|
0,2,6.8|
0,3,5.3|
0,4,5.7|
0,5,7.5|
0,6,3.4|
0,7,9.6|
1,0,3.5|
1,1,7.6|
1,2,7.8|
1,3,4.4|
1,4,2.3|
1,5,7.7|
1,6,0.14|
1,7,4.6|
2,0,6.1|
2,1,9.5|
2,2,3|
2,3,5.8|
2,4,2.3|
2,5,9.3|
2,6,9.1|
2,7,6.6|
3,0,6.6|
3,1,5.2|
3,2,3.3|
3,3,5.8|
3,4,8.7|
3,5,1.8|
3,6,5.5|
3,7,1.6|
4,0,8|
4,1,3.8|
4,2,6.2|
4,3,0.098|
4,4,6|
4,5,1.3|
4,6,1.5|
4,7,3.4|
5,0,8.8|
5,1,4.8|
5,2,9.7|
5,3,6.6|
5,4,1.2|
5,5,7.3|
5,6,1.5|
5,7,6|
6,0,7.3|
6,1,4.8|
6,2,4.5|
6,3,10|
6,4,6.8|
6,5,8.8|
6,6,5.7|
6,7,3.9|
7,0,3.4|
7,1,7.4|
7,2,4.4|
7,3,6|
7,4,1.7|
7,5,4.5|
7,6,5|
7,7,0.9|
];
constraint_x14_x10=[
0,0,3.4|
0,1,7.4|
0,2,5.8|
0,3,7.9|
0,4,9|
0,5,7.2|
0,6,6.4|
0,7,0.29|
1,0,6.9|
1,1,7.6|
1,2,0.19|
1,3,4|
1,4,1.4|
1,5,5|
1,6,1.5|
1,7,3.1|
2,0,0.87|
2,1,6.3|
2,2,7.4|
2,3,9.3|
2,4,9.5|
2,5,5.9|
2,6,8.2|
2,7,7.5|
3,0,0.26|
3,1,1.8|
3,2,8.6|
3,3,0.77|
3,4,6|
3,5,8.7|
3,6,4.6|
3,7,6.7|
4,0,6.1|
4,1,8.2|
4,2,2.1|
4,3,7.3|
4,4,3|
4,5,7.1|
4,6,4.3|
4,7,2.9|
5,0,4.5|
5,1,4.6|
5,2,1.9|
5,3,0.41|
5,4,0.0074|
5,5,8.6|
5,6,1.6|
5,7,1.6|
6,0,8.6|
6,1,5.8|
6,2,5.7|
6,3,4.2|
6,4,7.9|
6,5,7.7|
6,6,5.4|
6,7,0.77|
7,0,9.4|
7,1,6.9|
7,2,3.1|
7,3,8.2|
7,4,4|
7,5,3.9|
7,6,4.7|
7,7,2.1|
];
constraint_x14_x13=[
0,0,8.1|
0,1,9.2|
0,2,1.3|
0,3,1.4|
0,4,8.7|
0,5,6.2|
0,6,8|
0,7,8.5|
1,0,7.4|
1,1,7.7|
1,2,4.6|
1,3,5.1|
1,4,9.8|
1,5,2|
1,6,7.9|
1,7,2.7|
2,0,1.7|
2,1,4.9|
2,2,5.2|
2,3,9.3|
2,4,6.6|
2,5,8|
2,6,1|
2,7,8.2|
3,0,5.8|
3,1,3.8|
3,2,6.5|
3,3,2.7|
3,4,8.1|
3,5,4.1|
3,6,3.3|
3,7,6.7|
4,0,4.3|
4,1,3|
4,2,4.6|
4,3,8.5|
4,4,1.2|
4,5,9.5|
4,6,4.7|
4,7,9.7|
5,0,4.8|
5,1,3.9|
5,2,2.4|
5,3,6.6|
5,4,6.3|
5,5,7.5|
5,6,3.3|
5,7,4.7|
6,0,8.8|
6,1,5.4|
6,2,9.7|
6,3,4.7|
6,4,6.4|
6,5,5.2|
6,6,5.9|
6,7,4.8|
7,0,9.5|
7,1,5.6|
7,2,3.4|
7,3,2.1|
7,4,0.74|
7,5,2.3|
7,6,7.7|
7,7,1.4|
];
constraint_x15_x11=[
0,0,2.7|
0,1,3|
0,2,2|
0,3,9.4|
0,4,9.7|
0,5,3.3|
0,6,7.1|
0,7,6.5|
1,0,9|
1,1,4.6|
1,2,3.6|
1,3,6.8|
1,4,1.3|
1,5,2|
1,6,7|
1,7,2.8|
2,0,9.6|
2,1,2.1|
2,2,2.4|
2,3,2.2|
2,4,4.7|
2,5,3.6|
2,6,5.6|
2,7,0.66|
3,0,4.8|
3,1,2.9|
3,2,8.8|
3,3,1.8|
3,4,3.9|
3,5,7.4|
3,6,5.7|
3,7,6.1|
4,0,2.5|
4,1,2.8|
4,2,7.7|
4,3,7.3|
4,4,3.8|
4,5,3.8|
4,6,2.3|
4,7,4.6|
5,0,8.8|
5,1,7.4|
5,2,4.7|
5,3,2.4|
5,4,7.4|
5,5,0.98|
5,6,7.3|
5,7,1.7|
6,0,3.3|
6,1,5.7|
6,2,8.7|
6,3,5|
6,4,8.3|
6,5,1.9|
6,6,9.5|
6,7,5.4|
7,0,2.8|
7,1,9.5|
7,2,4.5|
7,3,9.4|
7,4,2.9|
7,5,1.3|
7,6,2.3|
7,7,1.7|
];
constraint_x15_x14=[
0,0,5.7|
0,1,0.59|
0,2,1.6|
0,3,9.9|
0,4,1.4|
0,5,5.2|
0,6,8.9|
0,7,1.1|
1,0,1.5|
1,1,9|
1,2,9.7|
1,3,8|
1,4,0.81|
1,5,5.1|
1,6,3.7|
1,7,5.1|
2,0,6.3|
2,1,4.5|
2,2,0.66|
2,3,4.3|
2,4,5.4|
2,5,0.6|
2,6,8.5|
2,7,6.5|
3,0,4|
3,1,9|
3,2,5.3|
3,3,1|
3,4,6.8|
3,5,1.6|
3,6,9.7|
3,7,0.86|
4,0,6.6|
4,1,9|
4,2,3.3|
4,3,8.6|
4,4,4.2|
4,5,1.5|
4,6,7.5|
4,7,8.8|
5,0,7.6|
5,1,3.9|
5,2,7.7|
5,3,0.21|
5,4,4.5|
5,5,8.2|
5,6,6.8|
5,7,8.8|
6,0,4|
6,1,4.4|
6,2,2.3|
6,3,2.9|
6,4,9.6|
6,5,7.6|
6,6,0.99|
6,7,0.056|
7,0,0.27|
7,1,4.5|
7,2,3|
7,3,5.3|
7,4,0.48|
7,5,5.5|
7,6,7.9|
7,7,1.6|
];
constraint_x16_x12=[
0,0,4.2|
0,1,0.79|
0,2,7|
0,3,9.9|
0,4,9.9|
0,5,5|
0,6,1.2|
0,7,2.3|
1,0,7.5|
1,1,8.4|
1,2,1.5|
1,3,6|
1,4,7|
1,5,2.7|
1,6,9|
1,7,8.4|
2,0,1.9|
2,1,8.4|
2,2,9.4|
2,3,0.036|
2,4,3.5|
2,5,1.5|
2,6,5.3|
2,7,7.6|
3,0,0.038|
3,1,5.5|
3,2,8.6|
3,3,3.7|
3,4,0.89|
3,5,0.83|
3,6,4.1|
3,7,0.12|
4,0,6.4|
4,1,4.1|
4,2,3|
4,3,3.8|
4,4,0.99|
4,5,2.1|
4,6,1.8|
4,7,1|
5,0,6.7|
5,1,8.5|
5,2,0.27|
5,3,2.4|
5,4,4.5|
5,5,4.2|
5,6,1.1|
5,7,3.5|
6,0,7|
6,1,3.8|
6,2,3.6|
6,3,5.1|
6,4,0.93|
6,5,2.5|
6,6,7.1|
6,7,1.7|
7,0,0.47|
7,1,3|
7,2,2.7|
7,3,4.8|
7,4,7.1|
7,5,9.9|
7,6,1.2|
7,7,0.31|
];
constraint_x16_x15=[
0,0,3.4|
0,1,7.6|
0,2,0.2|
0,3,8.8|
0,4,2.1|
0,5,0.77|
0,6,0.99|
0,7,3.7|
1,0,2.9|
1,1,7.1|
1,2,8.6|
1,3,9.1|
1,4,3.7|
1,5,5.2|
1,6,3.1|
1,7,0.49|
2,0,7.8|
2,1,3.6|
2,2,3.8|
2,3,5.4|
2,4,0.29|
2,5,9|
2,6,7.2|
2,7,4.7|
3,0,7.7|
3,1,4.1|
3,2,9.4|
3,3,5.7|
3,4,0.9|
3,5,5.3|
3,6,6.4|
3,7,5.8|
4,0,0.63|
4,1,5.6|
4,2,8.7|
4,3,3.9|
4,4,6.7|
4,5,3.6|
4,6,5|
4,7,4.4|
5,0,4.7|
5,1,6.7|
5,2,7.3|
5,3,1.8|
5,4,3|
5,5,7.2|
5,6,1.9|
5,7,7|
6,0,6.2|
6,1,5.8|
6,2,0.49|
6,3,9.9|
6,4,5.9|
6,5,4.5|
6,6,0.4|
6,7,6.3|
7,0,9.4|
7,1,9.4|
7,2,0.41|
7,3,8.1|
7,4,4.6|
7,5,1.4|
7,6,9.7|
7,7,7.5|
];
constraint_x17_x13=[
0,0,2.1|
0,1,1.1|
0,2,5|
0,3,9.4|
0,4,9.2|
0,5,6.2|
0,6,3.3|
0,7,6.7|
1,0,7.8|
1,1,7.4|
1,2,6.7|
1,3,1.4|
1,4,0.0055|
1,5,6.9|
1,6,2.6|
1,7,3.2|
2,0,9.9|
2,1,9.9|
2,2,9.4|
2,3,2.6|
2,4,7.3|
2,5,2.6|
2,6,0.023|
2,7,9.1|
3,0,8.5|
3,1,1.2|
3,2,1.7|
3,3,0.62|
3,4,9.8|
3,5,6.2|
3,6,7.7|
3,7,0.74|
4,0,8.2|
4,1,1.9|
4,2,5.3|
4,3,4.1|
4,4,4.5|
4,5,4.3|
4,6,1.8|
4,7,9.1|
5,0,8.8|
5,1,5|
5,2,1.3|
5,3,5.5|
5,4,7.6|
5,5,5.5|
5,6,0.92|
5,7,3.3|
6,0,8.6|
6,1,9.4|
6,2,5.6|
6,3,0.9|
6,4,3.6|
6,5,2.6|
6,6,3.7|
6,7,4.5|
7,0,6.3|
7,1,0.18|
7,2,0.36|
7,3,5.7|
7,4,2.8|
7,5,7.2|
7,6,5.5|
7,7,1|
];
constraint_x18_x14=[
0,0,0.53|
0,1,9.1|
0,2,4.3|
0,3,9.4|
0,4,1.8|
0,5,8.2|
0,6,1.7|
0,7,3.6|
1,0,6.6|
1,1,8.9|
1,2,3.1|
1,3,3.8|
1,4,7|
1,5,7.9|
1,6,6.6|
1,7,5.5|
2,0,3.4|
2,1,6.2|
2,2,7|
2,3,4.2|
2,4,3.6|
2,5,0.19|
2,6,3.7|
2,7,4|
3,0,5.3|
3,1,7.1|
3,2,2.1|
3,3,8.2|
3,4,3.7|
3,5,5.7|
3,6,6.6|
3,7,1.2|
4,0,6.8|
4,1,2.2|
4,2,8.6|
4,3,5.5|
4,4,1.5|
4,5,7.5|
4,6,1.8|
4,7,9.8|
5,0,9.1|
5,1,3.9|
5,2,3.1|
5,3,7.7|
5,4,6.6|
5,5,3.2|
5,6,0.17|
5,7,9.4|
6,0,2.4|
6,1,9.3|
6,2,5.8|
6,3,1.5|
6,4,3.6|
6,5,3.5|
6,6,8.6|
6,7,9.6|
7,0,2.5|
7,1,2.4|
7,2,9.7|
7,3,7|
7,4,8.8|
7,5,8.4|
7,6,9.2|
7,7,4.3|
];
constraint_x19_x15=[
0,0,0.33|
0,1,8.5|
0,2,7.5|
0,3,9.1|
0,4,8.2|
0,5,4|
0,6,2.3|
0,7,0.3|
1,0,6.9|
1,1,9.1|
1,2,4.9|
1,3,3.1|
1,4,9.7|
1,5,4.2|
1,6,5.4|
1,7,3|
2,0,3.3|
2,1,3.7|
2,2,4.8|
2,3,6.3|
2,4,8.5|
2,5,1.3|
2,6,7.5|
2,7,2.6|
3,0,7.9|
3,1,4.4|
3,2,2.9|
3,3,7.5|
3,4,9.2|
3,5,4.9|
3,6,4.2|
3,7,1.6|
4,0,3.1|
4,1,9.2|
4,2,8.8|
4,3,7.1|
4,4,3.5|
4,5,9.2|
4,6,7.9|
4,7,5.7|
5,0,2.7|
5,1,2.6|
5,2,8.3|
5,3,9.2|
5,4,1.2|
5,5,5.2|
5,6,7.4|
5,7,3.6|
6,0,4.4|
6,1,0.29|
6,2,8.3|
6,3,8.8|
6,4,0.21|
6,5,1.9|
6,6,8.4|
6,7,3.7|
7,0,1|
7,1,2.1|
7,2,4.3|
7,3,9.6|
7,4,5.5|
7,5,6.6|
7,6,9.6|
7,7,9.9|
];
constraint_x20_x16=[
0,0,1.4|
0,1,0.32|
0,2,3.9|
0,3,5.2|
0,4,1.1|
0,5,6.8|
0,6,7.8|
0,7,4.6|
1,0,8.6|
1,1,4.7|
1,2,1.6|
1,3,6.6|
1,4,9.2|
1,5,1.9|
1,6,5.5|
1,7,4.3|
2,0,3.6|
2,1,3|
2,2,5.4|
2,3,9|
2,4,8.3|
2,5,5.3|
2,6,3.4|
2,7,7.7|
3,0,5.1|
3,1,2.4|
3,2,7.9|
3,3,3.8|
3,4,4|
3,5,6.1|
3,6,9.5|
3,7,1.3|
4,0,6.6|
4,1,0.28|
4,2,6.4|
4,3,8.9|
4,4,2.6|
4,5,9.9|
4,6,5.7|
4,7,3.2|
5,0,3.1|
5,1,7.6|
5,2,5.7|
5,3,3.1|
5,4,9.8|
5,5,4.2|
5,6,9.8|
5,7,0.81|
6,0,2.1|
6,1,1.7|
6,2,6.4|
6,3,0.42|
6,4,8|
6,5,7.8|
6,6,8.1|
6,7,3.4|
7,0,0.66|
7,1,3|
7,2,2.4|
7,3,6.8|
7,4,3.9|
7,5,1.2|
7,6,3.7|
7,7,6.7|
];
constraint_x1_y1=[
0,0,4.7|
0,1,4.2|
0,2,8.4|
0,3,2.2|
0,4,9.5|
0,5,6|
0,6,9.3|
0,7,4.2|
1,0,9.5|
1,1,9.7|
1,2,3|
1,3,5.1|
1,4,6.5|
1,5,9.1|
1,6,5.6|
1,7,3.1|
2,0,1.5|
2,1,2.2|
2,2,8.8|
2,3,8.4|
2,4,3.3|
2,5,5.7|
2,6,6|
2,7,8.3|
3,0,3.6|
3,1,9.8|
3,2,9|
3,3,1.2|
3,4,5.9|
3,5,4.1|
3,6,9.7|
3,7,3|
4,0,5.9|
4,1,5.8|
4,2,9.6|
4,3,7.2|
4,4,9|
4,5,6.5|
4,6,3.1|
4,7,4.6|
5,0,3.4|
5,1,4.6|
5,2,5.1|
5,3,6.7|
5,4,2.4|
5,5,7.1|
5,6,9.9|
5,7,7.9|
6,0,3.5|
6,1,4.2|
6,2,2.1|
6,3,3.6|
6,4,2.1|
6,5,5.1|
6,6,4|
6,7,9.8|
7,0,3.6|
7,1,1.1|
7,2,9.4|
7,3,3.3|
7,4,7.9|
7,5,5.5|
7,6,1.6|
7,7,8.4|
];
constraint_x2_y2=[
0,0,1.9|
0,1,4.7|
0,2,8.2|
0,3,2|
0,4,8.7|
0,5,0.61|
0,6,9.3|
0,7,8.1|
1,0,6.1|
1,1,6.2|
1,2,2.2|
1,3,10|
1,4,4.4|
1,5,9.8|
1,6,4.1|
1,7,9.2|
2,0,1.6|
2,1,1.8|
2,2,9.9|
2,3,6.8|
2,4,6.8|
2,5,9.2|
2,6,9|
2,7,1.1|
3,0,3.6|
3,1,3.7|
3,2,5.2|
3,3,7|
3,4,5.1|
3,5,3.6|
3,6,0.54|
3,7,1.3|
4,0,1.4|
4,1,4.1|
4,2,6.6|
4,3,2.6|
4,4,9.2|
4,5,5.6|
4,6,0.9|
4,7,5.9|
5,0,4.7|
5,1,6.6|
5,2,3.2|
5,3,5.4|
5,4,0.62|
5,5,3.4|
5,6,10|
5,7,7.7|
6,0,3.2|
6,1,3.9|
6,2,2.9|
6,3,8.9|
6,4,5.3|
6,5,3.2|
6,6,9.2|
6,7,9.7|
7,0,0.54|
7,1,5.7|
7,2,0.67|
7,3,4.4|
7,4,8.1|
7,5,0.86|
7,6,1|
7,7,5.7|
];
constraint_x3_y3=[
0,0,0.23|
0,1,7.9|
0,2,5.6|
0,3,7.2|
0,4,1.7|
0,5,4.7|
0,6,4.8|
0,7,0.44|
1,0,6.6|
1,1,3|
1,2,6.3|
1,3,5.7|
1,4,1|
1,5,4.9|
1,6,2.6|
1,7,0.23|
2,0,4.7|
2,1,7.3|
2,2,1.3|
2,3,1.4|
2,4,5.5|
2,5,7.7|
2,6,2.1|
2,7,6.8|
3,0,5.6|
3,1,3.1|
3,2,5.1|
3,3,7.5|
3,4,2.5|
3,5,4.5|
3,6,8.9|
3,7,3.5|
4,0,2.6|
4,1,0.34|
4,2,7.1|
4,3,1.2|
4,4,6.5|
4,5,3.8|
4,6,0.24|
4,7,3.4|
5,0,3.9|
5,1,0.73|
5,2,5.4|
5,3,7.3|
5,4,5.7|
5,5,8.2|
5,6,7.7|
5,7,7.6|
6,0,1.7|
6,1,6.9|
6,2,9.3|
6,3,4|
6,4,1.3|
6,5,4.8|
6,6,1.1|
6,7,4.3|
7,0,5.1|
7,1,3.4|
7,2,0.61|
7,3,1.4|
7,4,4.9|
7,5,5.1|
7,6,7.6|
7,7,6.2|
];
constraint_x4_y4=[
0,0,2.1|
0,1,6|
0,2,8.3|
0,3,7|
0,4,1.9|
0,5,2.3|
0,6,9.8|
0,7,9|
1,0,9.2|
1,1,1.3|
1,2,2.7|
1,3,5.7|
1,4,8.5|
1,5,3.6|
1,6,0.93|
1,7,10|
2,0,5.5|
2,1,8.8|
2,2,1.6|
2,3,4.4|
2,4,6.3|
2,5,1.5|
2,6,4|
2,7,6.9|
3,0,0.054|
3,1,1.1|
3,2,9.2|
3,3,1.7|
3,4,7.3|
3,5,6.5|
3,6,4.5|
3,7,7.3|
4,0,9.6|
4,1,8.8|
4,2,0.51|
4,3,1.3|
4,4,3.5|
4,5,10|
4,6,6.2|
4,7,0.36|
5,0,3.3|
5,1,4.7|
5,2,9.6|
5,3,8.4|
5,4,5.5|
5,5,0.71|
5,6,8|
5,7,5|
6,0,1.3|
6,1,9.2|
6,2,3|
6,3,0.71|
6,4,3.9|
6,5,4.3|
6,6,6.9|
6,7,4.4|
7,0,5.1|
7,1,7.8|
7,2,8.7|
7,3,5.8|
7,4,0.16|
7,5,6.8|
7,6,2.3|
7,7,3.1|
];
constraint_x5_y5=[
0,0,9.9|
0,1,6.5|
0,2,0.71|
0,3,2.7|
0,4,4.8|
0,5,3.4|
0,6,6|
0,7,6.3|
1,0,0.11|
1,1,7.7|
1,2,3|
1,3,7.4|
1,4,4.1|
1,5,3.3|
1,6,1.3|
1,7,2.2|
2,0,3.1|
2,1,7.1|
2,2,6.9|
2,3,5.7|
2,4,3.1|
2,5,7.6|
2,6,0.36|
2,7,7.4|
3,0,3.4|
3,1,0.79|
3,2,7.6|
3,3,1.1|
3,4,9.1|
3,5,6.5|
3,6,8.1|
3,7,1.9|
4,0,0.38|
4,1,8.9|
4,2,9.7|
4,3,0.42|
4,4,7.6|
4,5,6|
4,6,0.85|
4,7,3.9|
5,0,6.3|
5,1,3|
5,2,0.85|
5,3,9.5|
5,4,4.5|
5,5,0.72|
5,6,9.4|
5,7,1.4|
6,0,8.2|
6,1,4|
6,2,2.9|
6,3,7|
6,4,1.7|
6,5,0.84|
6,6,0.86|
6,7,2.5|
7,0,1.5|
7,1,8.1|
7,2,1.8|
7,3,6|
7,4,0.99|
7,5,1.9|
7,6,9.5|
7,7,9.3|
];
constraint_x6_y6=[
0,0,2.3|
0,1,1.2|
0,2,7|
0,3,3.2|
0,4,4.4|
0,5,2.6|
0,6,6.5|
0,7,6.5|
1,0,2.9|
1,1,0.68|
1,2,2.5|
1,3,8.9|
1,4,8.8|
1,5,9|
1,6,3.2|
1,7,1.5|
2,0,6.1|
2,1,8.8|
2,2,3.1|
2,3,7.5|
2,4,3.8|
2,5,5.7|
2,6,3.3|
2,7,2.7|
3,0,3.6|
3,1,4.7|
3,2,8.7|
3,3,1.2|
3,4,0.1|
3,5,1.2|
3,6,8|
3,7,6.3|
4,0,8.9|
4,1,0.76|
4,2,6.1|
4,3,8.7|
4,4,3.7|
4,5,4.1|
4,6,8.3|
4,7,4|
5,0,4.7|
5,1,5|
5,2,4.1|
5,3,4|
5,4,0.55|
5,5,5.8|
5,6,9.6|
5,7,7|
6,0,5.9|
6,1,9.9|
6,2,4.4|
6,3,8.5|
6,4,1.9|
6,5,8.8|
6,6,2.9|
6,7,3.5|
7,0,2.8|
7,1,6.3|
7,2,0.51|
7,3,7.6|
7,4,6.1|
7,5,2.8|
7,6,9.3|
7,7,4|
];
constraint_x7_y7=[
0,0,3.4|
0,1,6|
0,2,2.2|
0,3,3.2|
0,4,7.5|
0,5,9.3|
0,6,3.9|
0,7,9.8|
1,0,5.6|
1,1,6.7|
1,2,4.2|
1,3,8.5|
1,4,0.65|
1,5,8.1|
1,6,8.2|
1,7,1.8|
2,0,2.9|
2,1,4|
2,2,1.6|
2,3,1|
2,4,3.1|
2,5,9.8|
2,6,3.8|
2,7,8.8|
3,0,8.7|
3,1,0.33|
3,2,2.1|
3,3,7.9|
3,4,9.6|
3,5,8.8|
3,6,0.062|
3,7,8.6|
4,0,2.2|
4,1,2|
4,2,8.4|
4,3,1.8|
4,4,6.7|
4,5,3.1|
4,6,6.6|
4,7,8|
5,0,7.3|
5,1,2.5|
5,2,4.1|
5,3,4.8|
5,4,2|
5,5,8.2|
5,6,6.7|
5,7,3.8|
6,0,0.39|
6,1,2.5|
6,2,8.1|
6,3,1.4|
6,4,0.57|
6,5,3.8|
6,6,7.3|
6,7,3.6|
7,0,2.6|
7,1,4.7|
7,2,0.7|
7,3,1.3|
7,4,3.8|
7,5,0.14|
7,6,3|
7,7,5.4|
];
constraint_x8_y8=[
0,0,8.7|
0,1,8.2|
0,2,2.3|
0,3,6.3|
0,4,2.8|
0,5,8.8|
0,6,4.1|
0,7,2.1|
1,0,2.9|
1,1,7|
1,2,3.6|
1,3,7.3|
1,4,5.4|
1,5,8.7|
1,6,3.2|
1,7,6.6|
2,0,7.4|
2,1,5.8|
2,2,4.9|
2,3,7.5|
2,4,7.8|
2,5,8.3|
2,6,0.44|
2,7,9.3|
3,0,3.6|
3,1,1.9|
3,2,8.1|
3,3,7.8|
3,4,4.7|
3,5,7.8|
3,6,8.6|
3,7,1.3|
4,0,0.061|
4,1,2.3|
4,2,4|
4,3,2.1|
4,4,2.4|
4,5,3.6|
4,6,9.7|
4,7,2.1|
5,0,8.7|
5,1,6.6|
5,2,6.2|
5,3,6.9|
5,4,8|
5,5,3.3|
5,6,3.1|
5,7,0.2|
6,0,6.8|
6,1,0.62|
6,2,6.8|
6,3,8.5|
6,4,1.1|
6,5,1.7|
6,6,8.3|
6,7,4.9|
7,0,9.9|
7,1,0.84|
7,2,1.6|
7,3,5.2|
7,4,6.2|
7,5,8.1|
7,6,7.9|
7,7,5.3|
];
constraint_x9_y9=[
0,0,5.9|
0,1,4.4|
0,2,2.6|
0,3,2.1|
0,4,0.9|
0,5,5.8|
0,6,2.5|
0,7,0.28|
1,0,1.8|
1,1,9|
1,2,2.1|
1,3,6|
1,4,6.9|
1,5,2.9|
1,6,0.32|
1,7,7|
2,0,0.63|
2,1,4.5|
2,2,3|
2,3,3.7|
2,4,4.5|
2,5,2.5|
2,6,9|
2,7,2.9|
3,0,5.2|
3,1,0.55|
3,2,3|
3,3,4.1|
3,4,0.73|
3,5,5|
3,6,6.8|
3,7,4.7|
4,0,4.3|
4,1,9.9|
4,2,3.9|
4,3,6.1|
4,4,2.5|
4,5,8.9|
4,6,8.6|
4,7,4.6|
5,0,6|
5,1,8.8|
5,2,4.7|
5,3,2|
5,4,7.8|
5,5,1.7|
5,6,9|
5,7,8.5|
6,0,5.3|
6,1,5.4|
6,2,4.1|
6,3,5.1|
6,4,2.5|
6,5,4.4|
6,6,8.6|
6,7,2.4|
7,0,0.93|
7,1,3.3|
7,2,0.32|
7,3,0.21|
7,4,2.4|
7,5,0.042|
7,6,10|
7,7,9.8|
];
initial_distribution_y1=[0.024,0.091,0.19,0.067,0.17,0.17,0.1,0.19];
initial_distribution_y2=[0.13,0.14,0.18,0.17,0.041,0.065,0.19,0.076];
initial_distribution_y3=[0.21,0.16,0.02,0.22,0.1,0.027,0.054,0.22];
initial_distribution_y4=[0.043,0.062,0.13,0.094,0.13,0.2,0.17,0.16];
initial_distribution_y5=[0.017,0.059,0.17,0.25,0.036,0.14,0.19,0.15];
initial_distribution_y6=[0.16,0.14,0.21,0.17,0.11,0.13,0.019,0.071];
initial_distribution_y7=[0.17,0.13,0.15,0.19,0.18,0.14,0.003,0.043];
initial_distribution_y8=[0.12,0.18,0.19,0.15,0.03,0.16,0.13,0.034];
initial_distribution_y9=[0.027,0.085,0.2,0.06,0.19,0.14,0.12,0.17];
transition_y1=[
0.0057,0.012,0.015,0.26,0.31,0.078,0.17,0.14|
0.13,0.098,0.1,0.11,0.16,0.15,0.15,0.1|
0.13,0.11,0.17,0.088,0.12,0.019,0.18,0.18|
0.07,0.14,0.28,0.037,0.025,0.084,0.039,0.33|
0.14,0.17,0.093,0.18,0.17,0.15,0.055,0.051|
0.066,0.0072,0.27,0.034,0.23,0.14,0.22,0.041|
0.11,0.15,0.15,0.15,0.17,0.021,0.11,0.14|
0.28,0.0076,0.041,0.31,0.14,0.08,0.11,0.03|
];
transition_y2=[
0.033,0.23,0.15,0.24,0.07,0.045,0.073,0.16|
0.3,0.18,0.016,0.069,0.26,0.064,0.077,0.037|
0.094,0.063,0.21,0.12,0.019,0.21,0.082,0.2|
0.14,0.14,0.21,0.005,0.11,0.046,0.21,0.15|
0.12,0.15,0.13,0.083,0.12,0.036,0.24,0.13|
0.13,0.22,0.11,0.19,0.055,0.18,0.029,0.091|
0.15,0.14,0.097,0.15,0.15,0.18,0.078,0.06|
0.05,0.081,0.17,0.14,0.24,0.16,0.0062,0.14|
];
transition_y3=[
0.099,0.15,0.054,0.19,0.12,0.14,0.18,0.076|
0.091,0.0066,0.29,0.11,0.0088,0.28,0.19,0.019|
0.14,0.1,0.042,0.072,0.18,0.19,0.23,0.043|
0.045,0.14,0.12,0.17,0.037,0.15,0.16,0.17|
0.071,0.019,0.15,0.15,0.15,0.21,0.19,0.06|
0.11,0.15,0.14,0.039,0.11,0.15,0.19,0.11|
0.1,0.2,0.19,0.047,0.054,0.15,0.16,0.099|
0.19,0.0062,0.0043,0.23,0.13,0.2,0.019,0.22|
];
transition_y4=[
0.22,0.12,0.057,0.019,0.23,0.09,0.23,0.037|
0.18,0.18,0.16,0.05,0.14,0.068,0.15,0.072|
0.077,0.29,0.2,0.035,0.23,0.039,0.031,0.1|
0.1,0.094,0.17,0.2,0.12,0.047,0.098,0.17|
0.14,0.033,0.3,0.098,0.0066,0.11,0.029,0.28|
0.043,0.17,0.22,0.043,0.21,0.26,0.014,0.043|
0.17,0.049,0.15,0.14,0.15,0.12,0.13,0.093|
0.16,0.13,0.18,0.1,0.07,0.12,0.059,0.18|
];
transition_y5=[
0.17,0.041,0.13,0.12,0.021,0.23,0.27,0.01|
0.068,0.23,0.026,0.033,0.1,0.19,0.18,0.18|
0.052,0.27,0.13,0.099,0.17,0.0039,0.2,0.073|
0.15,0.12,0.12,0.12,0.16,0.062,0.085,0.18|
0.096,0.28,0.018,0.18,0.13,0.082,0.094,0.13|
0.038,0.092,0.23,0.11,0.14,0.075,0.22,0.1|
0.13,0.14,0.09,0.19,0.042,0.16,0.084,0.15|
0.16,0.044,0.17,0.2,0.017,0.17,0.23,0.0092|
];
transition_y6=[
0.16,0.11,0.014,0.13,0.14,0.16,0.15,0.14|
0.13,0.034,0.18,0.17,0.047,0.023,0.3,0.13|
0.2,0.056,0.17,0.15,0.11,0.036,0.18,0.1|
0.18,0.12,0.0053,0.059,0.21,0.24,0.096,0.095|
0.16,0.02,0.21,0.074,0.2,0.12,0.16,0.056|
0.031,0.24,0.1,0.21,0.12,0.16,0.091,0.045|
0.12,0.11,0.18,0.15,0.19,0.043,0.033,0.17|
0.15,0.16,0.21,0.19,0.077,0.034,0.13,0.048|
];
transition_y7=[
0.077,0.14,0.18,0.091,0.087,0.13,0.095,0.2|
0.17,0.13,0.17,0.03,0.059,0.1,0.17,0.16|
0.041,0.17,0.21,0.02,0.16,0.14,0.18,0.083|
0.057,0.21,0.015,0.21,0.19,0.19,0.028,0.098|
0.042,0.2,0.011,0.13,0.18,0.088,0.17,0.18|
0.14,0.17,0.048,0.15,0.19,0.083,0.2,0.0065|
0.13,0.22,0.16,0.054,0.21,0.015,0.17,0.039|
0.18,0.023,0.17,0.055,0.25,0.25,0.053,0.016|
];
transition_y8=[
0.15,0.12,0.028,0.014,0.21,0.09,0.19,0.19|
0.17,0.23,0.24,0.084,0.086,0.057,0.049,0.093|
0.18,0.17,0.12,0.046,0.13,0.2,0.026,0.14|
0.025,0.19,0.17,0.031,0.14,0.16,0.073,0.21|
0.026,0.25,0.18,0.062,0.094,0.12,0.076,0.2|
0.0025,0.024,0.19,0.14,0.18,0.23,0.17,0.062|
0.16,0.12,0.18,0.073,0.15,0.17,0.11,0.042|
0.12,0.43,0.087,0.051,0.064,0.14,0.08,0.029|
];
transition_y9=[
0.14,0.12,0.39,0.058,0.029,0.16,0.057,0.044|
0.23,0.09,0.0096,0.022,0.12,0.19,0.18,0.17|
0.2,0.17,0.11,0.059,0.0072,0.16,0.29,0.014|
0.25,0.076,0.24,0.011,0.029,0.036,0.17,0.18|
0.16,0.16,0.17,0.12,0.17,0.06,0.091,0.062|
0.22,0.2,0.16,0.22,0.091,0.016,0.045,0.06|
0.043,0.074,0.11,0.15,0.17,0.18,0.15,0.13|
0.2,0.036,0.23,0.053,0.23,0.12,0.073,0.054|
];
